
single conp

name tool

cell
100 100 100 90.000000 90.000000 90.000000
fractional
O	      0.009380	      0.016246	    0.228134	
Zn	      0.018760	      0.032493	    0.234245	
Zn	      0.018760	      0.064985	    0.234245	
Zn	      0.018760	      0.097478	    0.234245	
Zn	      0.046899	      0.081232	    0.234245	
O	      0.065659	      0.081232	    0.228134	
Zn	      0.075039	      0.097478	    0.234245	
Zn	      0.075039	      0.064985	    0.234245	
Zn	      0.065659	      0.081232	    0.208218	
Zn	      0.037519	      0.097478	    0.208218	
O	      0.037519	      0.097478	    0.228134	
Zn	      0.046899	      0.113724	    0.234245	
Zn	      0.065659	      0.113724	    0.208218	
O	      0.065659	      0.113724	    0.228134	
Zn	      0.009380	      0.016246	    0.208218	
O	      0.015460	      0.032995	    0.204030	
Zn	      0.037519	      0.032493	    0.208218	
O	      0.047805	      0.049421	    0.206012	
Zn	      0.065659	      0.048739	    0.208218	
Zn	      0.075039	      0.032493	    0.234245	
Zn	      0.093798	      0.032493	    0.208218	
Zn	      0.103178	      0.016246	    0.234245	
Zn	      0.131318	      0.000000	    0.234245	
Zn	      0.127208	     -0.016598	    0.258270	
Zn	      0.156474	      0.022014	    0.236186	
Zn	      0.124947	      0.016832	    0.256967	
Zn	      0.095855	     -0.000431	    0.256805	
Zn	      0.068062	      0.015710	    0.256391	
Zn	      0.047372	      0.032653	    0.258659	
Zn	      0.024122	      0.049089	    0.257181	
Zn	      0.057776	      0.064388	    0.256999	
Zn	      0.093747	      0.035302	    0.257279	
Zn	      0.113465	      0.064852	    0.257805	
Zn	      0.141474	      0.047885	    0.253332	
Zn	      0.137093	      0.088912	    0.234358	
Zn	      0.102461	      0.112972	    0.219431	
Zn	      0.085783	      0.080563	    0.257363	
Zn	      0.067959	      0.112138	    0.253705	
Zn	      0.040189	      0.095412	    0.258685	
Zn	      0.010680	      0.079629	    0.252933	
Zn	      0.011024	      0.113461	    0.256624	
Zn	      0.037831	      0.129784	    0.254197	
Zn	      0.004219	      0.152065	    0.242709	
Zn	      0.018760	      0.129971	    0.234245	
O	      0.009380	      0.113724	    0.228134	
Zn	      0.009380	      0.113724	    0.208218	
Zn	      0.009380	      0.081232	    0.208218	
Zn	      0.037519	      0.064985	    0.208218	
O	      0.047779	      0.082690	    0.205559	
Zn	      0.018760	      0.000000	    0.234245	
Zn	      0.035726	     -0.003113	    0.258073	
Zn	      0.064199	     -0.019588	    0.258324	
Zn	      0.093829	     -0.034877	    0.257860	
Zn	      0.123318	     -0.050987	    0.257970	
Zn	      0.131318	     -0.032493	    0.234245	
Zn	      0.103178	     -0.016246	    0.234245	
Zn	      0.093798	      0.000000	    0.208218	
O	      0.093798	      0.000000	    0.228134	
Zn	      0.075039	      0.000000	    0.234245	
O	      0.065659	      0.016246	    0.228134	
Zn	      0.065659	      0.016246	    0.208218	
Zn	      0.065659	     -0.016246	    0.208218	
Zn	      0.093798	     -0.032493	    0.208218	
Zn	      0.121938	     -0.016246	    0.208218	
Zn	      0.121938	      0.016246	    0.208218	
O	      0.121938	      0.016246	    0.228134	
Zn	      0.131318	      0.032493	    0.234245	
Zn	      0.103178	      0.048739	    0.234245	
O	      0.093798	      0.032493	    0.228134	
Zn	      0.037519	      0.000000	    0.208218	
O	      0.046899	      0.016246	    0.202106	
Zn	      0.009380	      0.048739	    0.208218	
O	      0.016101	      0.065686	    0.204456	
O	      0.017694	      0.000632	    0.209045	
O	      0.018760	      0.000000	    0.254161	
Zn	      0.010091	      0.016161	    0.253482	
O	      0.018760	      0.032493	    0.254161	
O	      0.037519	      0.000000	    0.228134	
Zn	      0.046899	      0.016246	    0.234245	
Zn	      0.046899	      0.048739	    0.234245	
O	      0.065659	      0.048739	    0.228134	
Zn	      0.046899	     -0.016246	    0.234245	
Zn	      0.075039	     -0.032493	    0.234245	
O	      0.093798	     -0.032493	    0.228134	
Zn	      0.103178	     -0.048739	    0.234245	
Zn	      0.131318	     -0.064985	    0.234245	
O	      0.121938	     -0.048739	    0.228134	
Zn	      0.121938	     -0.048739	    0.208218	
O	      0.126638	     -0.031595	    0.203791	
O	      0.048698	     -0.015599	    0.209271	
O	      0.046899	     -0.016246	    0.254161	
O	      0.065659	     -0.016246	    0.228134	
O	      0.009380	      0.048739	    0.228134	
O	      0.037519	      0.032493	    0.228134	
O	      0.046899	      0.016246	    0.254161	
O	      0.018760	      0.064985	    0.254161	
O	      0.037519	      0.064985	    0.228134	
O	      0.009380	      0.081232	    0.228134	
O	      0.046899	      0.048739	    0.254161	
O	      0.018760	      0.129971	    0.254161	
Zn	      0.009380	      0.146217	    0.208218	
Zn	      0.037519	      0.129971	    0.208218	
O	      0.037519	      0.129971	    0.228134	
O	      0.009380	      0.146217	    0.228134	
O	      0.017437	      0.132332	    0.204689	
O	      0.134736	     -0.067607	    0.217734	
O	      0.100889	     -0.048026	    0.208488	
O	      0.131318	     -0.064985	    0.254161	
O	      0.103178	     -0.048739	    0.254161	
O	      0.131318	     -0.032493	    0.254161	
O	      0.121938	     -0.016246	    0.228134	
O	      0.083508	     -0.017022	    0.205273	
O	      0.083090	      0.016620	    0.205586	
O	      0.075039	     -0.032493	    0.254161	
O	      0.113607	      0.000074	    0.205001	
O	      0.047575	      0.116102	    0.204816	
O	      0.085326	      0.114298	    0.208314	
Zn	      0.093798	      0.097478	    0.208218	
Zn	      0.093798	      0.064985	    0.208218	
Zn	      0.121938	      0.048739	    0.208218	
O	      0.121938	      0.048739	    0.228134	
Zn	      0.131318	      0.064985	    0.234245	
Zn	      0.103178	      0.081232	    0.234245	
O	      0.093798	      0.064985	    0.228134	
O	      0.131318	      0.064985	    0.254161	
Zn	      0.121938	      0.081232	    0.208218	
O	      0.112511	      0.101253	    0.209361	
O	      0.121938	      0.081232	    0.228134	
O	      0.145969	      0.076235	    0.229518	
O	      0.103178	      0.081232	    0.254161	
O	      0.093798	      0.097478	    0.228134	
O	      0.150175	      0.038161	    0.239245	
O	      0.115157	      0.065653	    0.204025	
O	      0.083034	      0.082421	    0.204500	
O	      0.147817	      0.008995	    0.230747	
O	      0.103178	     -0.016246	    0.254161	
O	      0.083266	      0.049367	    0.205009	
O	      0.075039	      0.000000	    0.254161	
O	      0.115869	      0.032727	    0.204440	
O	      0.016250	      0.098526	    0.204900	
O	      0.131318	      0.000000	    0.254161	
O	      0.103178	      0.016246	    0.254161	
O	      0.075039	      0.032493	    0.254161	
O	      0.018760	      0.097478	    0.254161	
O	      0.131318	      0.032493	    0.254161	
O	      0.103178	      0.048739	    0.254161	
O	      0.046899	      0.081232	    0.254161	
O	      0.075039	      0.064985	    0.254161	
O	      0.046899	      0.113724	    0.254161	
O	      0.075039	      0.097478	    0.254161	

space
P1

print 1

single conp

name tool

cell
100 100 100 90.000000 90.000000 90.000000
fractional
O	      0.009380	      0.016246	    0.228134	
Zn	      0.018760	      0.032493	    0.234245	
Zn	      0.018760	      0.064985	    0.234245	
Zn	      0.018760	      0.097478	    0.234245	
Zn	      0.046899	      0.081232	    0.234245	
O	      0.065659	      0.081232	    0.228134	
Zn	      0.075039	      0.097478	    0.234245	
Zn	      0.075039	      0.064985	    0.234245	
Zn	      0.065659	      0.081232	    0.208218	
Zn	      0.037519	      0.097478	    0.208218	
O	      0.037519	      0.097478	    0.228134	
Zn	      0.046899	      0.113724	    0.234245	
Zn	      0.065659	      0.113724	    0.208218	
O	      0.065659	      0.113724	    0.228134	
Zn	      0.009380	      0.016246	    0.208218	
O	      0.015562	      0.032805	    0.204408	
Zn	      0.037519	      0.032493	    0.208218	
O	      0.047971	      0.049172	    0.205915	
Zn	      0.065659	      0.048739	    0.208218	
Zn	      0.075039	      0.032493	    0.234245	
Zn	      0.093798	      0.032493	    0.208218	
Zn	      0.103178	      0.016246	    0.234245	
Zn	      0.131318	      0.000000	    0.234245	
Zn	      0.126499	     -0.016711	    0.258108	
Zn	      0.156833	      0.021971	    0.234348	
Zn	      0.125482	      0.016517	    0.257074	
Zn	      0.095111	     -0.000560	    0.256738	
Zn	      0.065953	      0.016351	    0.256672	
Zn	      0.037979	      0.033485	    0.257209	
Zn	      0.010981	      0.050188	    0.254135	
Zn	      0.062727	      0.053970	    0.257676	
Zn	      0.094844	      0.033683	    0.256915	
Zn	      0.114392	      0.063252	    0.258043	
Zn	      0.142450	      0.047237	    0.253017	
Zn	      0.138243	      0.088655	    0.233808	
Zn	      0.102859	      0.115359	    0.195397	
Zn	      0.085837	      0.076733	    0.259395	
Zn	      0.094227	      0.102497	    0.248481	
Zn	      0.056432	      0.097111	    0.257115	
Zn	      0.028638	      0.079917	    0.257203	
Zn	      0.009189	      0.111158	    0.254238	
Zn	      0.036381	      0.125629	    0.258109	
Zn	      0.009166	      0.149823	    0.244986	
Zn	      0.018760	      0.129971	    0.234245	
O	      0.009380	      0.113724	    0.228134	
Zn	      0.009380	      0.113724	    0.208218	
Zn	      0.009380	      0.081232	    0.208218	
Zn	      0.037519	      0.064985	    0.208218	
O	      0.048114	      0.082535	    0.205190	
Zn	      0.018760	      0.000000	    0.234245	
Zn	      0.035849	     -0.003276	    0.258294	
Zn	      0.064381	     -0.019258	    0.258187	
Zn	      0.093584	     -0.035171	    0.258000	
Zn	      0.123345	     -0.051020	    0.258007	
Zn	      0.131318	     -0.032493	    0.234245	
Zn	      0.103178	     -0.016246	    0.234245	
Zn	      0.093798	      0.000000	    0.208218	
O	      0.093798	      0.000000	    0.228134	
Zn	      0.075039	      0.000000	    0.234245	
O	      0.065659	      0.016246	    0.228134	
Zn	      0.065659	      0.016246	    0.208218	
Zn	      0.065659	     -0.016246	    0.208218	
Zn	      0.093798	     -0.032493	    0.208218	
Zn	      0.121938	     -0.016246	    0.208218	
Zn	      0.121938	      0.016246	    0.208218	
O	      0.121938	      0.016246	    0.228134	
Zn	      0.131318	      0.032493	    0.234245	
Zn	      0.103178	      0.048739	    0.234245	
O	      0.093798	      0.032493	    0.228134	
Zn	      0.037519	      0.000000	    0.208218	
O	      0.046899	      0.016246	    0.202106	
Zn	      0.009380	      0.048739	    0.208218	
O	      0.016225	      0.065376	    0.204188	
O	      0.017498	      0.000429	    0.209746	
O	      0.018760	      0.000000	    0.254161	
Zn	      0.009228	      0.015036	    0.253106	
O	      0.018760	      0.032493	    0.254161	
O	      0.037519	      0.000000	    0.228134	
Zn	      0.046899	      0.016246	    0.234245	
Zn	      0.046899	      0.048739	    0.234245	
O	      0.065659	      0.048739	    0.228134	
Zn	      0.046899	     -0.016246	    0.234245	
Zn	      0.075039	     -0.032493	    0.234245	
O	      0.093798	     -0.032493	    0.228134	
Zn	      0.103178	     -0.048739	    0.234245	
Zn	      0.131318	     -0.064985	    0.234245	
O	      0.121938	     -0.048739	    0.228134	
Zn	      0.121938	     -0.048739	    0.208218	
O	      0.126750	     -0.031579	    0.203913	
O	      0.048713	     -0.015518	    0.209215	
O	      0.046899	     -0.016246	    0.254161	
O	      0.065659	     -0.016246	    0.228134	
O	      0.009380	      0.048739	    0.228134	
O	      0.037519	      0.032493	    0.228134	
O	      0.046899	      0.016246	    0.254161	
O	      0.018760	      0.064985	    0.254161	
O	      0.037519	      0.064985	    0.228134	
O	      0.009380	      0.081232	    0.228134	
O	      0.046899	      0.048739	    0.254161	
O	      0.018760	      0.129971	    0.254161	
Zn	      0.009380	      0.146217	    0.208218	
Zn	      0.037519	      0.129971	    0.208218	
O	      0.037519	      0.129971	    0.228134	
O	      0.009380	      0.146217	    0.228134	
O	      0.017569	      0.132430	    0.204184	
O	      0.134587	     -0.067711	    0.217731	
O	      0.100876	     -0.047992	    0.208535	
O	      0.131318	     -0.064985	    0.254161	
O	      0.103178	     -0.048739	    0.254161	
O	      0.131318	     -0.032493	    0.254161	
O	      0.121938	     -0.016246	    0.228134	
O	      0.083541	     -0.016973	    0.205265	
O	      0.083167	      0.016695	    0.205629	
O	      0.075039	     -0.032493	    0.254161	
O	      0.113614	      0.000134	    0.204995	
O	      0.047963	      0.116090	    0.204207	
O	      0.086016	      0.114188	    0.200890	
Zn	      0.093798	      0.097478	    0.208218	
Zn	      0.093798	      0.064985	    0.208218	
Zn	      0.121938	      0.048739	    0.208218	
O	      0.121938	      0.048739	    0.228134	
Zn	      0.131318	      0.064985	    0.234245	
Zn	      0.103178	      0.081232	    0.234245	
O	      0.093798	      0.064985	    0.228134	
O	      0.131318	      0.064985	    0.254161	
Zn	      0.121938	      0.081232	    0.208218	
O	      0.111824	      0.101554	    0.201760	
O	      0.121938	      0.081232	    0.228134	
O	      0.145882	      0.075572	    0.228811	
O	      0.103178	      0.081232	    0.254161	
O	      0.093798	      0.097478	    0.228134	
O	      0.150324	      0.037903	    0.238783	
O	      0.115128	      0.065751	    0.204564	
O	      0.083471	      0.082346	    0.205310	
O	      0.147590	      0.009117	    0.229804	
O	      0.103178	     -0.016246	    0.254161	
O	      0.083465	      0.049397	    0.205164	
O	      0.075039	      0.000000	    0.254161	
O	      0.115946	      0.032810	    0.204527	
O	      0.016090	      0.098459	    0.204146	
O	      0.131318	      0.000000	    0.254161	
O	      0.103178	      0.016246	    0.254161	
O	      0.075039	      0.032493	    0.254161	
O	      0.018760	      0.097478	    0.254161	
O	      0.131318	      0.032493	    0.254161	
O	      0.103178	      0.048739	    0.254161	
O	      0.046899	      0.081232	    0.254161	
O	      0.075039	      0.064985	    0.254161	
O	      0.046899	      0.113724	    0.254161	
O	      0.075039	      0.097478	    0.254161	

space
P1

print 1

single conp

name tool

cell
100 100 100 90.000000 90.000000 90.000000
fractional
O	      0.009380	      0.016246	    0.228134	
Zn	      0.018760	      0.032493	    0.234245	
Zn	      0.018760	      0.064985	    0.234245	
Zn	      0.018760	      0.097478	    0.234245	
Zn	      0.046899	      0.081232	    0.234245	
O	      0.065659	      0.081232	    0.228134	
Zn	      0.075039	      0.097478	    0.234245	
Zn	      0.075039	      0.064985	    0.234245	
Zn	      0.065659	      0.081232	    0.208218	
Zn	      0.037519	      0.097478	    0.208218	
O	      0.037519	      0.097478	    0.228134	
Zn	      0.046899	      0.113724	    0.234245	
Zn	      0.065659	      0.113724	    0.208218	
O	      0.065659	      0.113724	    0.228134	
Zn	      0.009380	      0.016246	    0.208218	
O	      0.015533	      0.032795	    0.204356	
Zn	      0.037519	      0.032493	    0.208218	
O	      0.048002	      0.049102	    0.205856	
Zn	      0.065659	      0.048739	    0.208218	
Zn	      0.075039	      0.032493	    0.234245	
Zn	      0.093798	      0.032493	    0.208218	
Zn	      0.103178	      0.016246	    0.234245	
Zn	      0.131318	      0.000000	    0.234245	
Zn	      0.125865	     -0.016830	    0.258070	
Zn	      0.157922	      0.022957	    0.233437	
Zn	      0.126536	      0.016088	    0.257126	
Zn	      0.094853	     -0.000575	    0.256754	
Zn	      0.065594	      0.017053	    0.256785	
Zn	      0.038919	      0.033598	    0.257375	
Zn	      0.011143	      0.050015	    0.254106	
Zn	      0.057510	      0.063278	    0.257355	
Zn	      0.093303	      0.033300	    0.256861	
Zn	      0.123866	      0.049360	    0.258202	
Zn	      0.156738	      0.056724	    0.240687	
Zn	      0.135896	      0.081928	    0.248694	
Zn	      0.098896	      0.110527	    0.189394	
Zn	      0.093285	      0.065351	    0.257226	
Zn	      0.092594	      0.096109	    0.254641	
Zn	      0.057228	      0.097928	    0.257147	
Zn	      0.027502	      0.080853	    0.257009	
Zn	      0.011290	      0.112125	    0.256191	
Zn	      0.038192	      0.127702	    0.256020	
Zn	      0.007521	      0.149390	    0.244832	
Zn	      0.018760	      0.129971	    0.234245	
O	      0.009380	      0.113724	    0.228134	
Zn	      0.009380	      0.113724	    0.208218	
Zn	      0.009380	      0.081232	    0.208218	
Zn	      0.037519	      0.064985	    0.208218	
O	      0.047956	      0.082282	    0.205294	
Zn	      0.018760	      0.000000	    0.234245	
Zn	      0.035931	     -0.003113	    0.258219	
Zn	      0.064371	     -0.019081	    0.258145	
Zn	      0.093340	     -0.035382	    0.258110	
Zn	      0.123360	     -0.051052	    0.258041	
Zn	      0.131318	     -0.032493	    0.234245	
Zn	      0.103178	     -0.016246	    0.234245	
Zn	      0.093798	      0.000000	    0.208218	
O	      0.093798	      0.000000	    0.228134	
Zn	      0.075039	      0.000000	    0.234245	
O	      0.065659	      0.016246	    0.228134	
Zn	      0.065659	      0.016246	    0.208218	
Zn	      0.065659	     -0.016246	    0.208218	
Zn	      0.093798	     -0.032493	    0.208218	
Zn	      0.121938	     -0.016246	    0.208218	
Zn	      0.121938	      0.016246	    0.208218	
O	      0.121938	      0.016246	    0.228134	
Zn	      0.131318	      0.032493	    0.234245	
Zn	      0.103178	      0.048739	    0.234245	
O	      0.093798	      0.032493	    0.228134	
Zn	      0.037519	      0.000000	    0.208218	
O	      0.046899	      0.016246	    0.202106	
Zn	      0.009380	      0.048739	    0.208218	
O	      0.016222	      0.065340	    0.204218	
O	      0.017546	      0.000422	    0.209616	
O	      0.018760	      0.000000	    0.254161	
Zn	      0.009563	      0.015195	    0.253371	
O	      0.018760	      0.032493	    0.254161	
O	      0.037519	      0.000000	    0.228134	
Zn	      0.046899	      0.016246	    0.234245	
Zn	      0.046899	      0.048739	    0.234245	
O	      0.065659	      0.048739	    0.228134	
Zn	      0.046899	     -0.016246	    0.234245	
Zn	      0.075039	     -0.032493	    0.234245	
O	      0.093798	     -0.032493	    0.228134	
Zn	      0.103178	     -0.048739	    0.234245	
Zn	      0.131318	     -0.064985	    0.234245	
O	      0.121938	     -0.048739	    0.228134	
Zn	      0.121938	     -0.048739	    0.208218	
O	      0.127257	     -0.031487	    0.204223	
O	      0.048744	     -0.015580	    0.209188	
O	      0.046899	     -0.016246	    0.254161	
O	      0.065659	     -0.016246	    0.228134	
O	      0.009380	      0.048739	    0.228134	
O	      0.037519	      0.032493	    0.228134	
O	      0.046899	      0.016246	    0.254161	
O	      0.018760	      0.064985	    0.254161	
O	      0.037519	      0.064985	    0.228134	
O	      0.009380	      0.081232	    0.228134	
O	      0.046899	      0.048739	    0.254161	
O	      0.018760	      0.129971	    0.254161	
Zn	      0.009380	      0.146217	    0.208218	
Zn	      0.037519	      0.129971	    0.208218	
O	      0.037519	      0.129971	    0.228134	
O	      0.009380	      0.146217	    0.228134	
O	      0.017557	      0.132491	    0.204161	
O	      0.134645	     -0.067644	    0.217741	
O	      0.101198	     -0.047813	    0.208311	
O	      0.131318	     -0.064985	    0.254161	
O	      0.103178	     -0.048739	    0.254161	
O	      0.131318	     -0.032493	    0.254161	
O	      0.121938	     -0.016246	    0.228134	
O	      0.083620	     -0.017013	    0.205282	
O	      0.083290	      0.016551	    0.205630	
O	      0.075039	     -0.032493	    0.254161	
O	      0.113792	      0.000109	    0.205028	
O	      0.047616	      0.115956	    0.204384	
O	      0.083558	      0.111962	    0.198467	
Zn	      0.093798	      0.097478	    0.208218	
Zn	      0.093798	      0.064985	    0.208218	
Zn	      0.121938	      0.048739	    0.208218	
O	      0.121938	      0.048739	    0.228134	
Zn	      0.131318	      0.064985	    0.234245	
Zn	      0.103178	      0.081232	    0.234245	
O	      0.093798	      0.064985	    0.228134	
O	      0.131318	      0.064985	    0.254161	
Zn	      0.121938	      0.081232	    0.208218	
O	      0.109568	      0.099402	    0.197906	
O	      0.121938	      0.081232	    0.228134	
O	      0.148639	      0.072183	    0.238798	
O	      0.103178	      0.081232	    0.254161	
O	      0.093798	      0.097478	    0.228134	
O	      0.155054	      0.040536	    0.234938	
O	      0.117156	      0.065293	    0.204645	
O	      0.083596	      0.081299	    0.205091	
O	      0.147032	      0.011100	    0.230627	
O	      0.103178	     -0.016246	    0.254161	
O	      0.083830	      0.049027	    0.205193	
O	      0.075039	      0.000000	    0.254161	
O	      0.116286	      0.032766	    0.204735	
O	      0.015954	      0.098429	    0.204015	
O	      0.131318	      0.000000	    0.254161	
O	      0.103178	      0.016246	    0.254161	
O	      0.075039	      0.032493	    0.254161	
O	      0.018760	      0.097478	    0.254161	
O	      0.131318	      0.032493	    0.254161	
O	      0.103178	      0.048739	    0.254161	
O	      0.046899	      0.081232	    0.254161	
O	      0.075039	      0.064985	    0.254161	
O	      0.046899	      0.113724	    0.254161	
O	      0.075039	      0.097478	    0.254161	

space
P1

print 1

single conp

name tool

cell
100 100 100 90.000000 90.000000 90.000000
fractional
O	      0.009380	      0.016246	    0.228134	
Zn	      0.018760	      0.032493	    0.234245	
Zn	      0.018760	      0.064985	    0.234245	
Zn	      0.018760	      0.097478	    0.234245	
Zn	      0.046899	      0.081232	    0.234245	
O	      0.065659	      0.081232	    0.228134	
Zn	      0.075039	      0.097478	    0.234245	
Zn	      0.075039	      0.064985	    0.234245	
Zn	      0.065659	      0.081232	    0.208218	
Zn	      0.037519	      0.097478	    0.208218	
O	      0.037519	      0.097478	    0.228134	
Zn	      0.046899	      0.113724	    0.234245	
Zn	      0.065659	      0.113724	    0.208218	
O	      0.065659	      0.113724	    0.228134	
Zn	      0.009380	      0.016246	    0.208218	
O	      0.015562	      0.032780	    0.204318	
Zn	      0.037519	      0.032493	    0.208218	
O	      0.048050	      0.049079	    0.205795	
Zn	      0.065659	      0.048739	    0.208218	
Zn	      0.075039	      0.032493	    0.234245	
Zn	      0.093798	      0.032493	    0.208218	
Zn	      0.103178	      0.016246	    0.234245	
Zn	      0.131318	      0.000000	    0.234245	
Zn	      0.124760	     -0.016650	    0.258109	
Zn	      0.161631	      0.026527	    0.234015	
Zn	      0.136356	      0.016148	    0.255248	
Zn	      0.096252	      0.000023	    0.257135	
Zn	      0.065961	      0.017058	    0.256842	
Zn	      0.039166	      0.033482	    0.257384	
Zn	      0.011453	      0.049942	    0.254430	
Zn	      0.057674	      0.063056	    0.257419	
Zn	      0.094281	      0.032700	    0.257002	
Zn	      0.123715	      0.048843	    0.258232	
Zn	      0.161291	      0.059973	    0.235907	
Zn	      0.136891	      0.081152	    0.249212	
Zn	      0.096185	      0.106187	    0.186842	
Zn	      0.093386	      0.065052	    0.257283	
Zn	      0.092525	      0.095782	    0.254931	
Zn	      0.057229	      0.097850	    0.257148	
Zn	      0.027566	      0.080824	    0.256972	
Zn	      0.011333	      0.112112	    0.256253	
Zn	      0.038231	      0.127689	    0.256025	
Zn	      0.007728	      0.149357	    0.244896	
Zn	      0.018760	      0.129971	    0.234245	
O	      0.009380	      0.113724	    0.228134	
Zn	      0.009380	      0.113724	    0.208218	
Zn	      0.009380	      0.081232	    0.208218	
Zn	      0.037519	      0.064985	    0.208218	
O	      0.047932	      0.082230	    0.205267	
Zn	      0.018760	      0.000000	    0.234245	
Zn	      0.035994	     -0.003083	    0.258282	
Zn	      0.064785	     -0.018476	    0.258004	
Zn	      0.093232	     -0.035319	    0.258249	
Zn	      0.123422	     -0.051011	    0.258117	
Zn	      0.131318	     -0.032493	    0.234245	
Zn	      0.103178	     -0.016246	    0.234245	
Zn	      0.093798	      0.000000	    0.208218	
O	      0.093798	      0.000000	    0.228134	
Zn	      0.075039	      0.000000	    0.234245	
O	      0.065659	      0.016246	    0.228134	
Zn	      0.065659	      0.016246	    0.208218	
Zn	      0.065659	     -0.016246	    0.208218	
Zn	      0.093798	     -0.032493	    0.208218	
Zn	      0.121938	     -0.016246	    0.208218	
Zn	      0.121938	      0.016246	    0.208218	
O	      0.121938	      0.016246	    0.228134	
Zn	      0.131318	      0.032493	    0.234245	
Zn	      0.103178	      0.048739	    0.234245	
O	      0.093798	      0.032493	    0.228134	
Zn	      0.037519	      0.000000	    0.208218	
O	      0.046899	      0.016246	    0.202106	
Zn	      0.009380	      0.048739	    0.208218	
O	      0.016204	      0.065333	    0.204155	
O	      0.017531	      0.000377	    0.209648	
O	      0.018760	      0.000000	    0.254161	
Zn	      0.009603	      0.015219	    0.253310	
O	      0.018760	      0.032493	    0.254161	
O	      0.037519	      0.000000	    0.228134	
Zn	      0.046899	      0.016246	    0.234245	
Zn	      0.046899	      0.048739	    0.234245	
O	      0.065659	      0.048739	    0.228134	
Zn	      0.046899	     -0.016246	    0.234245	
Zn	      0.075039	     -0.032493	    0.234245	
O	      0.093798	     -0.032493	    0.228134	
Zn	      0.103178	     -0.048739	    0.234245	
Zn	      0.131318	     -0.064985	    0.234245	
O	      0.121938	     -0.048739	    0.228134	
Zn	      0.121938	     -0.048739	    0.208218	
O	      0.129599	     -0.030980	    0.206040	
O	      0.048822	     -0.015529	    0.208914	
O	      0.046899	     -0.016246	    0.254161	
O	      0.065659	     -0.016246	    0.228134	
O	      0.009380	      0.048739	    0.228134	
O	      0.037519	      0.032493	    0.228134	
O	      0.046899	      0.016246	    0.254161	
O	      0.018760	      0.064985	    0.254161	
O	      0.037519	      0.064985	    0.228134	
O	      0.009380	      0.081232	    0.228134	
O	      0.046899	      0.048739	    0.254161	
O	      0.018760	      0.129971	    0.254161	
Zn	      0.009380	      0.146217	    0.208218	
Zn	      0.037519	      0.129971	    0.208218	
O	      0.037519	      0.129971	    0.228134	
O	      0.009380	      0.146217	    0.228134	
O	      0.017563	      0.132510	    0.204129	
O	      0.133598	     -0.068375	    0.217716	
O	      0.102652	     -0.046563	    0.206470	
O	      0.131318	     -0.064985	    0.254161	
O	      0.103178	     -0.048739	    0.254161	
O	      0.131318	     -0.032493	    0.254161	
O	      0.121938	     -0.016246	    0.228134	
O	      0.083747	     -0.017043	    0.205324	
O	      0.083487	      0.016433	    0.205459	
O	      0.075039	     -0.032493	    0.254161	
O	      0.114413	      0.000098	    0.205019	
O	      0.047566	      0.115982	    0.204420	
O	      0.082338	      0.110263	    0.197591	
Zn	      0.093798	      0.097478	    0.208218	
Zn	      0.093798	      0.064985	    0.208218	
Zn	      0.121938	      0.048739	    0.208218	
O	      0.121938	      0.048739	    0.228134	
Zn	      0.131318	      0.064985	    0.234245	
Zn	      0.103178	      0.081232	    0.234245	
O	      0.093798	      0.064985	    0.228134	
O	      0.131318	      0.064985	    0.254161	
Zn	      0.121938	      0.081232	    0.208218	
O	      0.108395	      0.097863	    0.196595	
O	      0.121938	      0.081232	    0.228134	
O	      0.149106	      0.072301	    0.237448	
O	      0.103178	      0.081232	    0.254161	
O	      0.093798	      0.097478	    0.228134	
O	      0.163651	      0.043543	    0.233101	
O	      0.117777	      0.065184	    0.204497	
O	      0.083600	      0.080962	    0.204854	
O	      0.147493	      0.017610	    0.236975	
O	      0.103178	     -0.016246	    0.254161	
O	      0.084044	      0.048824	    0.205106	
O	      0.075039	      0.000000	    0.254161	
O	      0.117282	      0.032633	    0.204554	
O	      0.015942	      0.098432	    0.203987	
O	      0.131318	      0.000000	    0.254161	
O	      0.103178	      0.016246	    0.254161	
O	      0.075039	      0.032493	    0.254161	
O	      0.018760	      0.097478	    0.254161	
O	      0.131318	      0.032493	    0.254161	
O	      0.103178	      0.048739	    0.254161	
O	      0.046899	      0.081232	    0.254161	
O	      0.075039	      0.064985	    0.254161	
O	      0.046899	      0.113724	    0.254161	
O	      0.075039	      0.097478	    0.254161	

space
P1

print 1

single conp

name tool

cell
100 100 100 90.000000 90.000000 90.000000
fractional
O	      0.009380	      0.016246	    0.228134	
Zn	      0.018760	      0.032493	    0.234245	
Zn	      0.018760	      0.064985	    0.234245	
Zn	      0.018760	      0.097478	    0.234245	
Zn	      0.046899	      0.081232	    0.234245	
O	      0.065659	      0.081232	    0.228134	
Zn	      0.075039	      0.097478	    0.234245	
Zn	      0.075039	      0.064985	    0.234245	
Zn	      0.065659	      0.081232	    0.208218	
Zn	      0.037519	      0.097478	    0.208218	
O	      0.037519	      0.097478	    0.228134	
Zn	      0.046899	      0.113724	    0.234245	
Zn	      0.065659	      0.113724	    0.208218	
O	      0.065659	      0.113724	    0.228134	
Zn	      0.009380	      0.016246	    0.208218	
O	      0.015549	      0.032782	    0.204325	
Zn	      0.037519	      0.032493	    0.208218	
O	      0.048033	      0.049022	    0.205774	
Zn	      0.065659	      0.048739	    0.208218	
Zn	      0.075039	      0.032493	    0.234245	
Zn	      0.093798	      0.032493	    0.208218	
Zn	      0.103178	      0.016246	    0.234245	
Zn	      0.131318	      0.000000	    0.234245	
Zn	      0.124664	     -0.016679	    0.258170	
Zn	      0.161548	      0.029863	    0.236244	
Zn	      0.136281	      0.016305	    0.255276	
Zn	      0.096142	      0.000015	    0.257103	
Zn	      0.065928	      0.017071	    0.256836	
Zn	      0.039117	      0.033496	    0.257378	
Zn	      0.011323	      0.049966	    0.254274	
Zn	      0.057628	      0.063039	    0.257426	
Zn	      0.094330	      0.032661	    0.256984	
Zn	      0.123923	      0.048831	    0.258255	
Zn	      0.161271	      0.063225	    0.238168	