
single conp

name tool

cell
100 100 100 90.000000 90.000000 90.000000
fractional

space
P1

print 1
